#MD-NVT with new coordinates and TARGET
#default settings
 &GLOBAL
   PRINT_LEVEL  MEDIUM
   PROJECT_NAME SiOH2-ZrCP2-ChemAds
   RUN_TYPE  MD
   SEED 1361
 &END GLOBAL
  
&MOTION
   &MD
 !    ANGVEL_ZERO TRUE
     ANGVEL_TOL  2.0E-7
     COMVEL_TOL  2.0E-7
     ENSEMBLE  NVT
     TIMESTEP [fs]  0.5
     STEPS  10000
     TEMPERATURE [K] 353
     !ANNEALING  0.999
     &THERMOSTAT 
       REGION  GLOBAL 
       TYPE  NOSE
       &NOSE
         TIMECON 15
         MTS 3
!         YOSHIDA 4
       &END NOSE
     &END THERMOSTAT
   &END MD
&PRINT
&FORCES
FORMAT XMOL
&END FORCES
&END PRINT
&END MOTION

 &FORCE_EVAL
   METHOD QS
   &DFT
     CHARGE 0
     BASIS_SET_FILE_NAME ../../cp2k-master/data/BASIS_MOLOPT_UCL
     BASIS_SET_FILE_NAME ../../cp2k-master/data/BASIS_MOLOPT
     POTENTIAL_FILE_NAME ../../cp2k-master/data/GTH_POTENTIALS 
     &MGRID
       CUTOFF 450
       REL_CUTOFF 30
       NGRIDS 4
     &END MGRID
 
     &QS
       METHOD  GPW
     &END QS
             
     &SCF
      !MAX_SCF          1             ! Max n of iterations
       EPS_SCF          0.1E-04       ! SCF converergence
       SCF_GUESS        ATOMIC
       &OT
         MINIMIZER DIIS
         PRECONDITIONER FULL_SINGLE_INVERSE
       &END OT
     &END SCF

     &XC 
       &XC_FUNCTIONAL PBE
       &END XC_FUNCTIONAL
      ! &XC_GRID
       !  XC_DERIV SPLINE2
       !  XC_SMOOTH_RHO NONE
      ! &END XC_GRID

       &VDW_POTENTIAL 
         DISPERSION_FUNCTIONAL PAIR_POTENTIAL
         &PAIR_POTENTIAL
           TYPE DFTD3(BJ)
           PARAMETER_FILE_NAME ../../cp2k-master/data/dftd3.dat
           REFERENCE_FUNCTIONAL PBE
         &END PAIR_POTENTIAL
       &END VDW_POTENTIAL
     &END XC
     
     &POISSON
       POISSON_SOLVER PERIODIC
       PERIODIC XYZ
     &END POISSON
   &END DFT

   &SUBSYS
     &CELL
       A   21.5      0.0000000000000000    0.0000000000000000
       B    0.0000000000000000   21.5      0.000000000000000
       C    0.0000000000000000    0.0000000000000000   40.0
       PERIODIC  XYZ
       !MULTIPLE_UNIT_CELL  1 1 1
     &END CELL
     &COORD
Si    2.498907499500      1.595671658000      5.979860122200
O     4.202754571400      4.413432561700      3.201849163700
O     2.924236866200      2.929223391700      5.065010632800
Si    3.830053160100      4.306181027400      4.799571060700
O     1.177455746000      2.167184660300      6.728303641600
Si    0.132311464700      3.374944106300      7.027543465600
O     3.661911782500      1.272283255000      7.100835952200
O     5.302099237700      3.953383618700      5.403851345700
O     2.102218573300      0.136614938700      5.232832622900
O     6.633305953300      2.679053615600      7.357753028000
Si    8.417361430200      3.657303839100      3.250051249300
Si    6.054702716100      4.121545146200      6.819953617900
O     6.807036337400      3.430468815600      2.972396216400
Si    5.730833301900      4.651974455300      2.623234519300
O     8.656841490400      3.587617745200      4.907646198100
O     9.323138932000      2.539668123000      2.415318301300
O    10.027469850100      1.186680893100      5.176098862400
O     7.309184980800      5.146418299800      6.562724996700
Si    8.847367932900      4.842932225400      6.007241984100
Si    9.706801506500      0.985622387500      6.762432714100
O     8.200854896100      0.369849262200      7.118249179100
O     8.798549546100      5.142105772900      2.582611128800
O     3.124682753100     10.602351807500      6.630841527200
Si    3.125820724700     10.410370439500      5.022598110100
O     2.987406390600      8.715666556400      4.927817903800
O     1.058191913800      7.026797581600      6.016648366000
O     3.283421504800      5.828325699900      5.312562370000
Si    2.683731637900      7.296978516100      5.874153807700
O     7.553966148300      7.099728525100      1.180226179400
O     8.645163979700      7.682379390800      3.595197442700
O     6.414833482700      6.042985446300      3.274543677900
Si    7.874722770400      6.523334539100      2.687471100100
O     9.633049080200      5.823841475300      4.983743056900
Si   10.041852407400      7.272352069700      4.373855708100
O     4.398123045700      2.518202675500      9.373050801600
Si    4.294493836000      4.167222014500      9.293391807800
O     2.785878626900      4.717738433300      9.681908309400
O     2.749688042200      0.443322882400      9.465326060400
O     0.603875898500      4.183496499900      8.349136516700
O     0.971704122500      0.451632671700     11.398974226500
O     1.109386727400      2.996381559000     10.689614300600
Si    1.157206725900      4.406972467000      9.855094784500
Si    4.044910992700      1.061576192800      8.683074437200
O     0.364817372800      2.611795416300     14.539239741700
O     4.841789875100      4.627760221400      7.806180679100
O     7.399061299100     10.159917179800     14.448859224900
Si    6.361389683600      7.358884407300     12.325761271900
O     0.444536279800     -0.069637070300     15.376333439600
O     5.396704138000      4.913618124100     10.241603720700
Si    8.609956953200      0.827957630200     15.091685758100
Si   10.351125925700      1.256065114700     12.552557567600
O     7.091298843200      3.347510888600     11.414751677800
Si    7.847115515500      1.939790891200     11.124168304800
O     7.685291799000      1.563504124900      9.547135183500
O     9.403475974000      2.163135566100     11.571921932900
Si    7.844078511700      1.783892932300      7.963540829200
Si    6.957069269700      4.816685732400     10.735969606600
O     7.168494733000      0.729972436700     11.963512722200
O     9.845961909100      1.202948340400     14.080331681000
O     8.156485676600      5.004649769900      9.609258516700
O     9.118156189700      0.153218335600     16.488684257400
O     9.340521613400      2.399577986200      7.582207233400
O     9.695325896800      5.069406103900      7.407018577000
O     7.085964190800      5.976308352400     11.866256022600
O     3.277577418800      7.615348679300      7.412076201200
Si    0.747865942300     10.406191883900     12.513645522700
Si    0.494155607900      9.717842604400      9.676846708800
O     3.654206851800      7.776931423800     10.156990172900
O     1.346904003600     10.083471558200     11.017205155100
O     4.096139927700     10.080169333900     11.722627435400
O     4.706844658000      7.451325858900     12.591926178100
Si    4.540241312100      8.551852123800     11.335267541000
O     3.450360034700      9.930756084600      8.999110041600
O     1.268736137200      8.505540557400      8.903292847500
Si    2.914548062500      8.392844805100      8.818152932800
O     0.154773238100      5.582772422800     10.491439713900
O     9.260880184200      8.505170768400     15.300206715200
O     9.992953451700      7.013997626700      9.293148769600
O     9.165943229900      9.485883947200     10.250764964100
O     6.210977751000      8.499235021500     11.088457426600
Si    9.557967504100     10.178464486800     11.671293664700
Si    9.651907989400      5.416932297800      9.003020630700
Si    9.707311569300      8.611829514200      8.983206153800
O     9.341779174400      8.960423871900     12.739665282500
O     8.580630970900      8.737614862000      7.798225349700
O     7.226754844400      7.692470166200     13.667276312100
Si    8.309172095500      8.852088241300     14.010221774800
Si   10.061172011100      9.801548928900     15.934029594300
Si    2.001740830300      1.075978085100     17.917943078900
O     3.294938904200      2.019516777600     18.200331676000
O     0.804647745000      1.871589038200     17.095890041100
O     2.847941570600     13.597612217700      3.529110487200
O     2.184546065200     15.450660397600      5.087317604900
O     1.427430326200     12.986575497800      6.021351404500
Si    1.593491974400     12.868596853300      4.361031309200
O     4.485476333700     11.351154369800      4.606632485700
O     1.871115759000     11.214949356000      4.222025580000
O     5.064941268300     14.242025514700      4.383489338000
Si    5.043193452600     12.800149521200      5.258578196600
O     3.942031046300     13.355728093100      6.346493190600
Si    3.542562733300     14.986618859500      4.187656243500
Si    0.544430977500     15.345465799900      4.808177120000
O     0.363538320400     13.917871731400      3.915802849600
Si    2.518274107000     13.499771627900      7.105705030900
O     6.411141236100     12.473414893100      6.163111839700
O     3.888201519500     16.570784222700      3.752254083000
O     0.216969825800     19.472742212400      5.071107495500
O     2.698357454500     18.900818664400      4.993142278700
Si    3.953579548700     17.856053705800      4.823916428900
O     4.480730266000     17.319709892100      6.325238780200
Si    1.679201584400     20.047364374700      5.630137309100
O     1.564739683300     20.084176516900      7.282883781500
O     9.921307685400     18.959611053500      5.304873459900
O     7.239852397400     17.333808391800      6.014529221500
Si    5.879297589200     18.242215827400      6.125740582500
O     5.371008231300     18.738428880200      4.615436003500
Si   10.544395452600     18.265212541800      6.671146919500
O     0.078669048100     16.801687398200      4.216203584900
O     9.018188207300     15.527512740700      7.025530941200
Si   10.662763269300     15.366192669800      7.035445712900
Si    8.154734809000     16.891666082300      7.295669088500
Si    3.437382861800     11.325698821500     12.586276762600
O     1.276062523900     14.931998351400     11.892866579600
O     4.555258380300     11.796110326200     13.672565749400
O     3.068321111100     14.705102000400     10.148420067500
Si    3.006603496000     15.783738150200      8.933145937800
O     2.915804201300     12.610111843300     11.659301145400
Si    2.010534172900     13.783510734700     10.952479183900
Si    3.254316554200     15.039087826500     14.397354368700
O     4.560703986800     14.105754168500     14.915947353900
O     2.322055905200     15.003568064600      7.671925528500
O     0.819495120500     13.209119633000     10.002977946300
O     2.631163679000     12.460563429900      8.362397424200
O     1.961502700600     13.880146681500     14.450322161700
Si    3.629361291700     11.205514586400      8.049152987700
O     4.033069295200     15.905028131300     13.131255468200
Si    0.293863207800     13.656318015400     14.871699199800
O     5.152724012300     11.713832636100      8.283433041200
O     0.291387577800     14.110209332800     16.467936822400
O     2.094979750100     10.755409082700     13.370595362200
O     0.226446289000     10.989637173700      8.662448021000
Si    5.546499901600     12.796312528400     14.532720281100
O     6.267681737500     12.079961933600     15.851122579400
O     5.971923132700     14.401777795200      7.739213479000
Si    8.343366564600     12.735252915900     13.009718063000
O     9.556151253700     12.980953059200     14.135204389800
O     8.504371513200     11.281876795600     12.257185055200
Si    6.016780618200     15.559403190500      8.883586944400
Si    7.856853256500     13.814181079800     10.145805890800
O     7.394955501100     12.624776041000      9.048737845200
O     8.428154444700     13.666024993200     11.660605018000
O     6.572864470700     14.844182769200     10.243065914300
Si    6.291130530600     12.793607023400      7.809840468000
O     9.194431814500     14.414071977400      9.456065212500
O     6.866090047200     13.137071821100     13.595047094400
Si    7.258574997300     10.725025299600     16.007700525300
O    10.678276097700     16.049760532400     11.008616041700
Si   10.708210554400     14.730502078900      9.976943329700
O     8.893597295700     10.889149107600     16.487296324400
O    10.675340409100     10.668272910900     14.631936210300
O     5.297506971200     21.484344146500      8.819482125000
O     4.572587025800     16.266482621200      8.904907199300
O     2.624760850600     16.346715638300     15.238437933000
O     0.656433007400     17.770966061200     14.054616007600
O     2.172051687200     17.185300815600      9.067460101000
O     2.846571667500     20.748814210000     14.367159778300
Si    1.428547542300     17.467770111000     15.479011797000
O     1.793764797000     18.978366629900     16.016334294000
Si    2.226164411700     21.106889689400     10.768060221700
O     3.437980955200     17.613250853700     11.236103109100
O     3.436571457000     20.826066516500     11.819678952300
Si    2.926824124900     18.384623834400      9.907306501500
O     4.106129849600     19.112810234600      9.061938778700
O     1.856061541600     19.552243265700     10.313252715200
O     4.260366132100     18.650016027700     13.424250527100
Si    3.956029307000     20.271861557900     13.276496949100
Si    4.516161008400     17.343950096500     12.421001902200
Si    1.870902064600     20.598203555700     15.666344515400
O     0.454751237000     16.809303817500     16.630056597700
Si    0.086686102700     20.159238430000      8.057696716000
O     5.370242145700     21.044750454000     13.449193869200
O     6.042403856600     19.407082263500      7.262218832600
O     7.101640348600     16.723821176100      8.525092667800
O    10.386570574300     21.278211175000     11.804078596800
Si    6.931867126500     20.986545019500     12.997706766400
O     6.645846045400     19.332801570800      9.846682602300
O     7.400376078000     19.565645083300     12.345109811300
O     8.804253591500     17.923081913300     10.711672290400
O     7.766599310200     21.128581037600     14.377560209900
Si    7.244037726100     18.488119164300     11.131327035000
Si   10.473727438800     17.663017241400     10.607489740300
Si    5.529909552300     19.839784496000      8.761764349700
O     9.243973664800     18.074931459500      7.656203826700
O     6.062491748800     17.407343985100     11.719158911700
O     2.536653069000     21.344210953100     16.959935943200
O    11.478325758900      3.215399014300      5.859174962500
Si   11.482759571400      1.896316173000      4.930326289700
O    15.229266232100      1.567952679800      4.532086596200
O    12.759465834200      0.970094182200      5.314635543400
Si   12.719536665400      4.022098597900      6.508106697000
Si   14.017311953900      0.480159585300      4.392733641200
O    14.108559040700      3.660837602800      5.776496788500
O    11.564410107200      3.294887964500      1.019923377300
O    11.716600561500      2.385229729400      3.417203608500
Si   12.900051238600      4.219959661300      1.235886906100
O    15.758666990800      3.962963150100      3.762552457200
Si   15.475234923400      3.069625648400      5.136335232200
O    14.400902207800      3.438716749100      1.317093443700
O    11.270371666500      0.706975079600      1.405995263100
O    13.219579580600      4.928825475300      2.735674688000
Si   14.853458849300      4.517639438700      2.515063452000
Si   10.887017233600      2.198265950600      2.031129757100
O    11.050153683600      0.309095504600      7.339728032100
O    21.513760142400      4.510079586800      5.843497094700
O    16.647426455800      3.063458205900      6.335479437900
O    12.299995164700      5.561668030600      6.400951280800
Si   12.228630332100      7.123466152400      6.111878977700
O    13.156090248800      7.475033846600      4.847616271200
O    11.187386375300      7.537716023000      3.196869555500
O    15.241708040900      6.718017741600      3.976265052900
Si   12.684313679500      8.201690487000      3.471408432200
O    15.828621444500      8.750419350000      5.628637602500
Si   15.996235961100      7.144079744400      5.310500200100
O    15.308538480700      6.276614996400      6.482160191400
O    13.797556661300      7.989971536300      2.272855434500
O    12.604467496000      9.801423034000      3.836112942600
O    15.531063132700      5.824439207300      1.712284941400
Si   15.276201034900      7.260934902800      2.455968579800
O    12.546700452300     10.371635749500      6.571182089700
Si   16.231082894900     10.327884421300      5.389594990500
O    16.509456495800      8.308452863600      2.208468900300
O    18.367723025900     10.151702066000      1.720406869600
O    18.820067921900      8.132856116900      6.619246276300
O    16.724342947400     10.453194204700      3.839299806600
Si   21.195615726300      6.112352808200      6.034924149500
O    17.384060609200     10.746557392400      6.492663826400
Si   18.862320279600      7.590252146600      5.047051032500
Si   17.565246927900      9.384663218300      2.901529084000
O    20.230673851100      6.717256528600      4.840267830100
O    18.720485843600      8.733185334600      3.898426689500
O    17.532276123600      6.647905228100      4.998393262900
O    13.452437632900      0.229604396400      2.885076155400
O    10.758905683000      7.835826799200      5.774755587200
O    12.833537366500      7.815156485900      7.425340287700
O    11.870663741800      1.868905284800     12.653449085300
O    12.838912978000      3.582229851400      8.046700073900
Si   12.286327894700      3.728106878500      9.549668381300
O    13.502510191300      4.473477882500     10.382459821300
O    14.338010649700      2.323583748900     11.642461913100
Si   14.696193886200      3.960104747200     11.363729179800
O    12.177427840100      2.168690312200     10.080516566500
Si   12.890721431100      1.527920449200     11.414904340400
O    14.488387300500      4.916441217300     12.667285981900
O    15.585239162500      4.404554954900      8.298394690800
O    15.670856109700      4.046739600700     14.843181235400
Si   15.332132561200      5.385202129800     13.953210280300
O    10.885244957300      4.556070295700      9.691006827400
O    21.497782913700      9.107687451700     13.200367491200
Si   16.160095952300      4.110246881000     16.419437422200
O    16.265696174100      4.185235122500     10.949953394800
O    16.124491032900      1.662065363500      8.583034248000
Si   18.660444116800      2.599352429500     15.260486528700
O    20.537910008700      1.565747921400      9.687267335200
Si   20.822098852800      3.346305908300     13.479110037800
O    17.840542523200      1.632048515100     14.225502440800
Si   17.865889651500      3.786779630100     10.687642367600
O    19.030719602100      4.916543864500     11.091600374300
Si   20.049887130000      1.212167788800      8.143717688200
O    20.679718305000      2.242297457500     12.265884903400
O    18.066817860100      2.468274787200     11.629454827900
Si   17.741801238700      1.209277332900     12.630932278900
O    19.428661510100      3.661163143100     14.289110578100
O    19.852742975700      1.702830763300     16.010994041100
O    17.697281833900      3.429437018800     16.325259910700
O    17.914773488600      3.499141542800      9.044646476300
Si   16.614605080500      3.149087340200      8.027287402900
O    18.498677712400      0.752146976000      7.976307915100
O    21.136550762200      4.837744182600     12.887744358100
O    18.813586815700      0.003467986600     12.268238110100
Si   16.958349346800      0.278982284500      8.200100774800
O    20.218635526200      2.597736188600      7.271085663800
Si   21.555795510100      1.761671027800     10.968109407800
Si   21.482463044200      1.509286934000     15.726258490500
Si   20.430455023200      5.691184931500     11.649760203000
O    13.976896049200      7.990806966000     16.873773407700
O    14.405250316100      6.417998038400     14.838760146600
Si   15.152479649000      7.028452375200     16.173681658000
Si   15.913248177300      5.964442331400      7.958470988100
O    13.764209674200      9.491275169000      8.983102902100
Si   12.549719448800      9.347027488900      7.868685461200
Si   15.120167646200      8.608978050400      9.315147550200
O    15.171026094000      7.004115147800      8.972923372400
O    15.449112576800      8.589083242500     10.920949334900
O    13.433165746800     10.066663588900     15.066103922600
Si   13.049737156200      9.333509334300     16.530191560200
O    11.064376006800      9.410130195000      8.522476777500
O    16.349185068600      9.334051493800      8.512120638200
O    16.484334946300      7.909278402500     15.706106859400
O    20.600563722400      9.251243431900     10.378886571500
O    11.404210641300      9.180979866800     16.713673510300
O    20.085974961900      7.233971737700     12.183304803100
Si   19.917108924300      8.573486067600     13.282885031900
Si   19.093673203100      9.008869644000      9.859207840300
O    16.642550608200      8.880271346500     13.281617311300
O    18.864669899800      7.763810862400     14.298170958900
O    19.332258551200     10.131717050500     13.747287660400
O    18.868944872500     10.008856854700      8.599424517300
O    17.545871015300      6.051988221900      7.814655015500
Si   16.588131595900      9.399815125800     11.753626479300
Si   18.906164840900      6.954175451800      7.782512134600
Si   17.218053603000      7.683455310800     14.244180661300
O    18.968349811100      7.488717138000      9.310223443600
Si   17.406948924100     10.518865407900      8.109407993600
O    16.742353985500      6.204935737800     13.661204110800
O    18.126924040300      9.191910855500     11.166793941200
O    20.306022212300      6.189276779100      7.428246181400
O    15.309227293200      3.215510454900     17.489723121300
O    13.441698666300     10.751850585100     17.352246457500
O    15.825411496900      5.684171849600     16.940165085000
O    12.230014447600     12.238170761400      4.603805105000
O    15.008154094100     11.403247714700      5.623949575600
O    13.738004157600     13.800251182400      6.027367223800
Si   14.962535323300     12.828926375800      6.433731546200
Si   12.354751884400     13.756354332500      5.156925388600
O    12.541395613600     14.939167435700      4.046355816800
O    11.055850419000     14.109650109900      6.084856270100
Si   11.918808849800     10.689477462600      5.050030518900
O    16.334928989300     13.666177153100      6.083684168700
O    21.201672913300     15.156731110000      6.170403421700
O    18.583128457600     14.777239871300      6.645073019000
Si   16.994813912800     14.859126235800      7.012821538000
Si   20.085025830800     14.895660766400      7.300176552300
O    11.199644538500     16.790130783200      6.402266608300
Si   14.845321051300     17.134420351300      6.560103195800
O    14.251886145400     16.781754193000      5.082975022700
Si   13.829679038400     15.933849048900      3.741412519400
O    13.359199840500     16.959507523200      2.503475275400
O    10.896814682500     20.739699203400      3.439127420500
Si   12.427216086600     18.275740391100      2.639553388400
Si   12.071246251500     21.059146741700      2.293694344000
O    12.614362948400     19.615411900000      1.641698858300
O    12.472275788800     18.826040966600      4.226036370800
O    15.219390600300     18.716306812600      6.719004739600
Si   14.878336472400     20.301968772600      6.572298116700
O    14.558816142300     20.580925373800      5.001374327200
O    16.261394815400     21.132937565000      6.879514886900
O    16.261391195700     16.286834853200      6.720689496700
O    10.744450900600     18.133667521100      2.730661523200
Si   10.852363894300     19.200536215500      4.017787970900
O    19.723530759700     18.595833954400      3.508366403200
O    19.718106519000     17.708259586100      5.934411825300
Si   20.737222259200     18.161417216700      4.707185739500
O    15.057532579900     12.171093573700     15.710020563500
O    15.455737818000     12.833764299400     13.237537399400
Si   13.564523233500     11.540999082900     15.871593985500
Si   15.158183368100     12.207837944100     11.765348333700
O    15.596683944000     13.288502220200     10.617627466600
Si   12.010002506800     12.207681468200     11.598176563500
O    12.235106497900     12.531459632300     15.617782747600
O    13.595560017500     11.802760076000     11.407002537400
O    14.860087603500     12.618220201900      8.058773910100
O    11.499287165400     13.442425699900     10.624412135300
O    11.933561508200     12.697955849800     13.140281471600
Si   11.054096360700     12.245225245300     14.435276461500
O    11.363283949900     15.080629318500      8.505217066800
Si   16.009603047000     15.754363998000     15.799322715900
Si   16.071325567700     13.074168819200      9.087223742700
O    16.424657360200     14.321987320700     15.166240562900
Si   16.216346965900     12.786047268300     14.701917652200
O    16.728114440500     14.483620224300      8.590016779500
O    17.171082461800     11.871229717600      8.976716540300
Si   19.176706766700     11.737778267600     14.112555525100
O    17.691200956300     12.016901607300     14.845463170700
O    18.874689866300     12.464425429100     12.663544461700
O    20.291179586300     14.257656223600     11.477699246500
Si   20.111949047500     12.646153577700     11.653684593600
O    20.605927374900     12.394287092600     14.835334678800
O    19.910600688800     12.094308606700     10.151601770900
O    20.583346422300     13.513515230100      8.039703768700
O    19.706119006700     15.528068432200     15.866951587100
Si   21.152760477100     12.463716817400      9.140186849900
O    21.365188090200     11.795592175100     12.342567981800
O    21.124090032900     14.784612760000     13.910694899900
Si   21.235116555800     15.230429974500     12.356835571500
Si   21.019985926700     15.491899302900     16.871915307300
O    14.628311223700     16.340181571500     15.166631692400
O    12.992676720200     17.157930919600     13.274963084200
Si   14.474163315400     17.334693811700     13.900358450600
Si   12.068617282900     20.661363274500      7.871568908000
O    13.957758986100     16.949256351900     10.464895679300
O    15.232943111500     19.405754494300     11.576947523300
Si   13.123590864200     17.508673927800      9.089837779000
O    13.886259027900     18.983819606600      9.287056139400
Si   14.952748217200     18.329813252200     10.384821917300
O    11.504980871100     20.528450163500      9.391930521200
O    11.487559593700     17.620898381800      9.228395876600
Si   11.580477121400     20.478791190400     11.010772559800
O    14.922811231100     18.939249522400     14.225769567100
O    13.725861100600     16.791027753500      7.737315163200
O    15.751569394800     17.188738367500     12.805500084000
O    11.269823779700     18.886020161600     11.415425333800
Si   15.975788531800     18.859133589800     12.951248203900
O    13.647550419800     20.917397419600      7.507158359700
O    11.736486863900     19.251413854600      7.116998517500
O    21.124035520200     18.604270194300      7.886733644500
O    19.999584813600     16.264312877400      8.213364750900
Si   18.759074742800     19.881441702800     12.244660593600
O    20.897998656400     21.502315704400      7.414720093300
O    17.482919306200     19.401519784800     13.188672476100
Si   20.637434982500     17.907348495000     13.452661146400
O    19.555715474200     17.841051882300     14.684641694400
O    16.421678195500     17.988370097700      9.750684992400
O    17.246918372100     16.723115584500     15.315504665100
Si   19.780006299000     17.769167888200      7.572817744700
O    20.232978720500     19.327308006400     12.742062982500
O    20.613760215100     16.740687806000     12.277279222900
Si   18.795733641300     16.893853066900     15.754711015500
Si   17.618986504500     19.077072474300      9.475235584500
O    18.455470844800     18.514627295900      8.193507645600
O    16.951037672200     20.573166813900      9.302686329700
O    18.592375026000     19.185141386800     10.777581500400
O    12.973837477300     21.371567298300     11.330774345400
O    11.042065284800     10.884170721300     11.470642813000
O    16.196970925500     10.960517880700     11.642640956100
O    15.825194567000     14.178372345500     19.611521435600
O    15.680491543700     15.742777166000     17.418659670100
Si   16.653154767100     15.125074390000     18.600590918700
O    17.993672246000     14.624405229700     17.738929261400
O    20.418284405100     15.594415697100     18.422379865200
O    18.747287308600     17.341082331100     17.345724251600
Si   18.817283537900     15.983308377400     18.314192244700
O    17.628821908900     16.208431468800     19.463431392100
H    15.544999541400      2.274667469900     17.530401968800
O     1.418811329200      0.592977898800     19.373528273200
H     0.510452402600      0.254065568100     19.392201704100
H     7.699684348600      8.991943237600      8.119791657200
O     7.775646754300      2.228413187400     15.299892135600
H     6.970295214700      2.178410724100     15.839576104500
H    19.979604363700     19.354431819800      2.963779750500
O    12.835423798600      5.370113731600      0.075160646300
H    12.137610980500      5.252027537600     -0.587473118000
H    17.906537231500     10.257106035400      0.874248204700
O     6.572308344000      9.706096839400     17.032437378700
H    15.034008437500     13.738939499300     19.258706396300
O    -0.364865018400     20.449799965400      9.607940234200
H    -0.220758036800     19.703336330100     10.214344469100
H     9.619661640700      0.725726569100     17.088786227100
O     5.590322031200      4.783589712000      1.006405279000
H     6.070470408900      5.525887989300      0.599356674700
H     8.237073202600      7.645993904900      0.759185931100
O    15.081101014800     15.086601142100      3.129556365800
H    15.727082295100     14.737303241900      3.766176750400
H     3.249324504600      2.565108047600     19.003172605800
O    16.268856872400      0.583299030100     12.413408982400
H    15.546259752800      1.201952361600     12.170575795800
H    13.007962602400     16.962288543600     12.315733264600
O    10.299032150500     10.458153982400      5.013208736100