 &GLOBAL
   PRINT_LEVEL  MEDIUM
   PROJECT_NAME silica_bare
   RUN_TYPE  GEO_OPT
 &END GLOBAL
  
 &MOTION
   &GEO_OPT
     OPTIMIZER BFGS
     TYPE MINIMIZATION
     MAX_ITER 600
   &END GEO_OPT
 &END MOTION  

 &FORCE_EVAL
   METHOD QS
   &DFT
    MULTIPLICITY 1
     CHARGE 0
     BASIS_SET_FILE_NAME /gpfs/home4/kolganov/cp2k-2022.2/data/BASIS_MOLOPT_UCL
     BASIS_SET_FILE_NAME /gpfs/home4/kolganov/cp2k-2022.2/data/BASIS_MOLOPT
     POTENTIAL_FILE_NAME /gpfs/home4/kolganov/cp2k-2022.2/data/GTH_POTENTIALS 
     &MGRID
       CUTOFF 450
       REL_CUTOFF 30
       NGRIDS 4
     &END MGRID
 
     &QS
       METHOD  GPW
     &END QS
             
     &SCF
      !MAX_SCF          1             ! Max n of iterations
       EPS_SCF          0.1E-04       ! SCF converergence
       SCF_GUESS        ATOMIC
       &OT
         MINIMIZER DIIS
         PRECONDITIONER FULL_SINGLE_INVERSE
       &END OT
     &END SCF

     &XC 
       &XC_FUNCTIONAL PBE
       &END XC_FUNCTIONAL
      ! &XC_GRID
       !  XC_DERIV SPLINE2
       !  XC_SMOOTH_RHO NONE
      ! &END XC_GRID

       &VDW_POTENTIAL 
         DISPERSION_FUNCTIONAL PAIR_POTENTIAL
         &PAIR_POTENTIAL
           TYPE DFTD3(BJ)
           PARAMETER_FILE_NAME /gpfs/home4/kolganov/cp2k-2022.2/data/dftd3.dat
           REFERENCE_FUNCTIONAL PBE
         &END PAIR_POTENTIAL
       &END VDW_POTENTIAL
     &END XC
     
     &POISSON
       POISSON_SOLVER PERIODIC
       PERIODIC XYZ
     &END POISSON
   &END DFT

   &SUBSYS
     &CELL
       A   21.5      0.0000000000000000    0.0000000000000000
       B    0.0000000000000000   21.5      0.000000000000000
       C    0.0000000000000000    0.0000000000000000   40.0
       PERIODIC  XYZ
       !MULTIPLE_UNIT_CELL  1 1 1
     &END CELL
     &COORD
Si       2.496365676      1.590376668      5.978533263
O        4.202794891      4.413148454      3.201873225
O        2.924021272      2.925720695      5.065113963
Si       3.829298581      4.303122931      4.799002463
O        1.177080131      2.166058056      6.727951500
Si       0.131301664      3.372870121      7.027753668
O        3.660950468      1.271789914      7.100302473
O        5.302029394      3.953212355      5.403649441
O        2.099059837      0.128695729      5.233828442
O        6.633812438      2.679075745      7.357510076
Si       8.417406025      3.657075161      3.249511157
Si       6.054891096      4.121189177      6.819402074
O        6.807034211      3.430373151      2.972445827
Si       5.730886756      4.652051965      2.622952983
O        8.657027381      3.587287583      4.907570580
O        9.323418970      2.539441416      2.415467806
O       10.028173905      1.186405992      5.175656551
O        7.309416067      5.146590213      6.563000577
Si       8.847506426      4.842462471      6.006723518
Si       9.707182475      0.986025691      6.761851870
O        8.201361350      0.370025701      7.118068957
O        8.798639884      5.142074186      2.582861493
O        3.125225643     10.601556621      6.630907345
Si       3.127691379     10.407505788      5.022678720
O        2.987878075      8.713675452      4.927804699
O        1.057978524      7.025721373      6.016536262
O        3.283555820      5.826756902      5.312388578
Si       2.683334111      7.294537716      5.872677680
O        7.554035457      7.099644018      1.179898283
O        8.645393314      7.682144002      3.595061141
O        6.415028096      6.043195956      3.274606442
Si       7.874753297      6.523285968      2.686752194
O        9.633308121      5.823794161      4.984031126
Si      10.041992580      7.271989296      4.373143720
O        4.398271423      2.517729948      9.372686090
Si       4.294327014      4.166649216      9.293058579
O        2.785922736      4.717510516      9.681741289
O        2.749221287      0.443264551      9.465194626
O        0.603911069      4.183157415      8.348486834
O        0.972223805      0.452375664     11.399849979
O        1.109504374      2.996286457     10.689494557
Si       1.156856809      4.406465685      9.854666423
Si       4.044300581      1.061129250      8.682336504
O        0.364949038      2.611644201     14.538897271
O        4.842606837      4.628049968      7.806400396
O        7.399898374     10.147673849     14.511396097
Si       6.347933588      7.352729345     12.320030322
O        0.444457205     -0.069488334     15.375347861
O        5.396828947      4.914150639     10.241646710
Si       8.610929850      0.827875536     15.092987814
Si      10.351104130      1.256304295     12.552949527
O        7.091513157      3.347227661     11.414604114
Si       7.847600817      1.938959842     11.124395318
O        7.685153417      1.563615073      9.547020089
O        9.403719804      2.163340288     11.571447652
Si       7.844496741      1.783826555      7.963469501
Si       6.957364557      4.815291721     10.735439956
O        7.168470487      0.729388854     11.963185107
O        9.845840017      1.202146438     14.079627890
O        8.156372203      5.004964196      9.609095106
O        9.118585381      0.153114733     16.488893491
O        9.340833930      2.399850876      7.582021070
O        9.695075935      5.069844847      7.407028779
O        7.086670187      5.977717034     11.865708396
O        3.278168370      7.614846404      7.410467035
Si       0.744071940     10.404907301     12.513280256
Si       0.494960837      9.710871251      9.679100571
O        3.652535990      7.776292279     10.154535167
O        1.347126361     10.082266998     11.018207420
O        4.095582893     10.080659520     11.722101690
O        4.697601934      7.451006968     12.586912411
Si       4.535314019      8.552124304     11.331026853
O        3.449500300      9.930180351      8.998646534
O        1.269204933      8.501925089      8.903235293
Si       2.914048433      8.392012924      8.814931365
O        0.154640342      5.583213230     10.490292443
O        9.261811542      8.497658612     15.322452734
O        9.993199634      7.012910032      9.295577041
O        9.171883342      9.465666240     10.292328859
O        6.207086274      8.498580345     11.087242029
Si       9.564456203     10.165421740     11.704432132
Si       9.652717977      5.415956486      9.002986800
Si       9.704994434      8.612763028      8.999554167
O        9.343034947      8.963560440     12.796215820
O        8.582109474      8.740559344      7.808903019
O        7.177947018      7.701903563     13.677091803
Si       8.286016157      8.824172129     14.042551892
Si      10.083942757      9.804425617     15.895401380
Si       1.997977235      1.074717959     17.918887349
O        3.293914626      2.018741528     18.200749883
O        0.804088341      1.871113262     17.095253795
O        2.848881981     13.595947649      3.528615973
O        2.186706053     15.448284437      5.087624308
O        1.429885546     12.985447837      6.020488959
Si       1.597112693     12.862238529      4.360636762
O        4.485692306     11.351131932      4.607074508
O        1.872181950     11.210014815      4.221845852
O        5.066041430     14.240686987      4.383872070
Si       5.044572049     12.799531563      5.259720451
O        3.943776306     13.355334717      6.348005723
Si       3.543767399     14.984648103      4.187498570
Si       0.546856132     15.332905102      4.808435003
O        0.363346123     13.904513922      3.916328311
Si       2.519249469     13.499667613      7.105133221
O        6.412232175     12.473205672      6.165206750
O        3.888382623     16.569390468      3.752495143
O        0.223391774     19.426260978      5.074242412
O        2.702534396     18.900054499      4.992500983
Si       3.955337855     17.855008458      4.823165762
O        4.481325975     17.319121149      6.325089055
Si       1.673353048     20.036507095      5.629065873
O        1.559601208     20.081183051      7.282188042
O        9.921081586     18.959662540      5.304858925
O        7.239869838     17.332986018      6.014689290
Si       5.879451032     18.242407850      6.125677053
O        5.372297584     18.738173291      4.615254325
Si      10.544233682     18.265729136      6.670936847
O        0.084124502     16.788232249      4.213016588
O        9.017014841     15.525293036      7.029551727
Si      10.661549255     15.365902744      7.035704573
Si       8.154281905     16.891830758      7.296135937
Si       3.429166696     11.324808939     12.579578006
O        1.275254366     14.931935669     11.891347992
O        4.547207371     11.790724509     13.670364507
O        3.068009173     14.705303647     10.147961655
Si       3.006184036     15.784510085      8.932460535
O        2.914298456     12.610494588     11.655193528
Si       2.007286312     13.784790937     10.948495829
Si       3.249949434     15.040925767     14.396331093
O        4.558994228     14.102891953     14.918639724
O        2.321404824     15.003220940      7.672024912
O        0.815738187     13.209618512      9.999013639
O        2.631773168     12.460542611      8.362519034
O        1.961647572     13.879693446     14.449866252
Si       3.629743637     11.205362243      8.048751280
O        4.033489793     15.903996069     13.131990397
Si       0.291942853     13.657901677     14.874394476
O        5.153222554     11.713501878      8.284134503
O        0.295045837     14.108891873     16.471557370
O        2.092472572     10.754576479     13.370014867
O        0.229689039     10.978628485      8.663167326
Si       5.520751496     12.775833343     14.554747640
O        6.202134755     12.010654576     15.876497317
O        5.972447965     14.401344880      7.739497911
Si       8.333705936     12.717536279     13.033935041
O        9.559634001     12.980602322     14.141541051
O        8.505480674     11.276814707     12.264802859
Si       6.015818948     15.560395737      8.881971130
Si       7.840757346     13.809801213     10.171117908
O        7.394939651     12.627551109      9.055681565
O        8.357597883     13.669505325     11.708383508
O        6.565673989     14.847512948     10.243915634
Si       6.292580440     12.793617402      7.812533738
O        9.190832795     14.412760852      9.517410577
O        6.872561016     13.075303949     13.668574323
Si       7.278104178     10.726526832     16.057661618
O       10.681917753     16.053881941     11.012536159
Si      10.713255552     14.734077140      9.987260183
O        8.896607926     10.807973686     16.559887796
O       10.674814463     10.679822332     14.617401146
O        5.297501841     21.484435225      8.819598385
O        4.571719274     16.266859860      8.903957539
O        2.623994700     16.347346040     15.238202797
O        0.656511279     17.770317519     14.054523291
O        2.172349699     17.185517658      9.067459404
O        2.846629584     20.748993025     14.367182943
Si       1.426880987     17.469056213     15.480729171
O        1.793633173     18.978965669     16.016306567
Si       2.225837220     21.107391330     10.768572334
O        3.437476369     17.613086368     11.236299955
O        3.436662601     20.825630429     11.819198326
Si       2.926233929     18.385113493      9.907461191
O        4.106041626     19.112510482      9.062005772
O        1.855593108     19.552612610     10.313018265
O        4.260250384     18.649951619     13.424283412
Si       3.955900646     20.272499274     13.276809367
Si       4.516082547     17.345044479     12.420918343
Si       1.870588826     20.599038993     15.666673416
O        0.454259641     16.808178410     16.630553558
Si       0.087916425     20.158796452      8.070133754
O        5.370309779     21.044730893     13.448720687
O        6.042456084     19.407041192      7.262402835
O        7.101597802     16.723954803      8.525428033
O       10.386456117     21.278429370     11.803662597
Si       6.932381069     20.986692989     12.998678075
O        6.645928583     19.332425565      9.846384756
O        7.400318021     19.565500784     12.345122515
O        8.804483835     17.922783679     10.711499297
O        7.767188683     21.128414946     14.377594609
Si       7.244050774     18.488682070     11.131486661
Si      10.474266336     17.665803587     10.607974725
Si       5.529693449     19.839974155      8.761847006
O        9.243744990     18.074648347      7.655998654
O        6.062211022     17.407453847     11.719276970
O        2.536486478     21.344804087     16.959676151
O       11.478306709      3.215280508      5.858905431
Si      11.483348446      1.896323676      4.929548429
O       15.229216597      1.567772474      4.531927770
O       12.759767049      0.970036023      5.314556982
Si      12.719674753      4.022028074      6.507675518
Si      14.017686386      0.479886572      4.392423814
O       14.108666802      3.660602933      5.776664875
O       11.564686449      3.294542333      1.019668753
O       11.716647785      2.385201728      3.416527707
Si      12.900102377      4.219957046      1.235270076
O       15.758430924      3.963200265      3.763060882
Si      15.475558356      3.069080645      5.136416572
O       14.400784298      3.438058224      1.317322492
O       11.269885730      0.706045151      1.405843126
O       13.219373653      4.929112165      2.735039322
Si      14.853333171      4.516816283      2.514894001
Si      10.887123680      2.197898106      2.030288442
O       11.049940839      0.308911127      7.339706220
O       21.512703991      4.507658022      5.843345776
O       16.646863191      3.062685092      6.336519474
O       12.300465981      5.561999247      6.401366557
Si      12.227889538      7.123548296      6.111566870
O       13.156050788      7.475276529      4.847916589
O       11.187759087      7.537909623      3.196823714
O       15.241251671      6.718130128      3.976453994
Si      12.684722159      8.201760417      3.471143086
O       15.828722846      8.750615190      5.628539937
Si      15.995909685      7.143893434      5.310519768
O       15.308306788      6.276262903      6.482257879
O       13.798041434      7.990273362      2.272850215
O       12.604328166      9.801798186      3.836076250
O       15.530834811      5.823929011      1.712512957
Si      15.276333497      7.260226009      2.455798688
O       12.545543568     10.371365585      6.572177833
Si      16.231321729     10.327922282      5.388865633
O       16.510434313      8.306841383      2.208642569
O       18.367520558     10.151602883      1.720316019
O       18.819842348      8.132478637      6.619870688
O       16.724698014     10.453102110      3.838727031
Si      21.195303320      6.110381623      6.034392326
O       17.384163744     10.746661649      6.492429195
Si      18.862291048      7.590217523      5.047263155
Si      17.565527236      9.383886418      2.901059117
O       20.230544231      6.716993463      4.840541787
O       18.720738941      8.733362674      3.899038260
O       17.532033370      6.648149106      4.998783675
O       13.452341052      0.229484784      2.884972677
O       10.758325235      7.836021994      5.774489617
O       12.831473861      7.816153736      7.425536941
O       11.870829943      1.868686243     12.653442431
O       12.838766768      3.582208736      8.046465256
Si      12.286973673      3.727697200      9.549556083
O       13.502446722      4.473678733     10.382680121
O       14.338143727      2.323785424     11.642387513
Si      14.696424689      3.960210208     11.363923722
O       12.177437244      2.168662411     10.080433104
Si      12.890816309      1.528323243     11.415190960
O       14.488308396      4.916675492     12.667243759
O       15.586287251      4.402427376      8.298389948
O       15.670676729      4.046110468     14.843741786
Si      15.331094165      5.383873787     13.954368931
O       10.885746388      4.555759211      9.691053366
O       21.496687022      9.107167760     13.200643993
Si      16.159847190      4.108114601     16.420819683
O       16.265835375      4.185532251     10.949852681
O       16.125921334      1.654376047      8.585417554
Si      18.660716780      2.599460634     15.261177683
O       20.537962657      1.566421894      9.687252951
Si      20.822159359      3.346094796     13.479661532
O       17.840869423      1.632046143     14.225607324
Si      17.865947093      3.786260501     10.687672764
O       19.030573322      4.916617650     11.091539845
Si      20.049526439      1.209286700      8.144588391
O       20.679441527      2.242378327     12.265773217
O       18.067030424      2.468176696     11.629595703
Si      17.742298706      1.209412204     12.631709348
O       19.428530772      3.661028914     14.288847625
O       19.852782540      1.702673873     16.010726468
O       17.697347592      3.429219949     16.325183504
O       17.914342985      3.497988114      9.044870920
Si      16.613961563      3.143489993      8.028704757
O       18.497727066      0.749526175      7.979028472
O       21.136532317      4.837560337     12.887392702
O       18.813540710      0.003239315     12.267777366
Si      16.959710902      0.267590989      8.204618270
O       20.218075677      2.594846691      7.271422066
Si      21.555525872      1.761624086     10.968379952
Si      21.482236427      1.509330345     15.726066014
Si      20.430560832      5.690240940     11.649643205
O       13.972748180      7.990191525     16.873734291
O       14.404365539      6.418051837     14.839145494
Si      15.151555581      7.025593270     16.175051750
Si      15.913221426      5.962375710      7.958251472
O       13.759643425      9.489981131      8.984407547
Si      12.544902949      9.346893353      7.869720431
Si      15.118320477      8.608565487      9.313623472
O       15.171100612      7.003512408      8.972427238
O       15.448411167      8.589244477     10.919773554
O       13.427851596     10.064270114     15.068432532
Si      13.047915569      9.330989183     16.535713068
O       11.058291865      9.411140829      8.525086898
O       16.348146027      9.334527076      8.512026000
O       16.481039763      7.909584149     15.706481376
O       20.599942995      9.250117811     10.380308002
O       11.390431208      9.181632820     16.714329267
O       20.086117974      7.233646297     12.183628122
Si      19.915367310      8.571511173     13.283579501
Si      19.093179992      9.007470066      9.858931689
O       16.641578145      8.880614337     13.281571979
O       18.861341730      7.764030899     14.298111469
O       19.332166204     10.131224849     13.747151371
O       18.868487526     10.008652700      8.600132306
O       17.545647259      6.051744050      7.814338110
Si      16.587916860      9.398388794     11.753096100
Si      18.906105339      6.953138444      7.782182022
Si      17.215187696      7.683037877     14.244965194
O       18.968796802      7.487445998      9.310314729
Si      17.406805704     10.518861059      8.108981785
O       16.740389369      6.205149384     13.661413123
O       18.126755018      9.191613307     11.166653521
O       20.306418817      6.189171628      7.428124137
O       15.309000627      3.214941093     17.490497926
O       13.439856540     10.750287411     17.353018334
O       15.825234508      5.683495432     16.939877649
O       12.230335392     12.238403533      4.604380651
O       15.008981961     11.404803888      5.623454072
O       13.739233105     13.800710049      6.027213899
Si      14.965297510     12.830493335      6.433070802
Si      12.355735843     13.756636161      5.156846012
O       12.541317689     14.939635021      4.046569629
O       11.056397994     14.109769820      6.085582068
Si      11.918635454     10.689466899      5.049877760
O       16.339739056     13.668294484      6.086956597
O       21.200837769     15.155813214      6.170608933
O       18.587015813     14.780677400      6.707502221
Si      16.992196911     14.861323461      7.024512945
Si      20.105940173     14.870504378      7.316686837
O       11.199013121     16.789543988      6.403103633
Si      14.844865934     17.134596617      6.560120881
O       14.252081545     16.781751424      5.082929025
Si      13.829649764     15.934423045      3.740975496
O       13.359292097     16.959795493      2.503207534
O       10.896977350     20.739657937      3.439133557
Si      12.426931644     18.275851609      2.639200538
Si      12.071359408     21.059092998      2.293375459
O       12.614222011     19.615255455      1.641705936
O       12.472079193     18.825423688      4.226115058
O       15.219340999     18.715882335      6.719147780
Si      14.878614371     20.301715911      6.571778949
O       14.558507965     20.580364111      5.001195409
O       16.261162225     21.132290519      6.879490536
O       16.260695593     16.286565094      6.720980491
O       10.744205628     18.133607852      2.730666525
Si      10.852338024     19.200633523      4.017506331
O       19.650462134     18.529582456      3.586320573
O       19.774835676     17.690587407      6.000580667
Si      20.733932356     18.126833567      4.734138878
O       15.057472268     12.170046634     15.710211167
O       15.454389284     12.832284235     13.240966796
Si      13.567870508     11.538650868     15.874173472
Si      15.160419973     12.207334343     11.767417197
O       15.596085641     13.287570966     10.619566559
Si      12.012950124     12.204974466     11.595496490
O       12.236098316     12.531269112     15.618158064
O       13.596845398     11.801400182     11.407191577
O       14.859517643     12.617721706      8.058159239
O       11.501001011     13.440126900     10.626087265
O       11.937130976     12.702169630     13.136780565
Si      11.063342474     12.262666496     14.432648421
O       11.354596109     15.078384503      8.509015144
Si      16.009518196     15.755927450     15.800770661
Si      16.069143170     13.072187541      9.088741997
O       16.423879671     14.322735986     15.166220321
Si      16.218527185     12.787321184     14.703441582
O       16.722413147     14.483263647      8.596894378
O       17.170802249     11.871144390      8.977031736
Si      19.176957283     11.737071441     14.112012222
O       17.691527024     12.016889877     14.845474926
O       18.875371046     12.464193790     12.662654588
O       20.291266246     14.258284991     11.477361579
Si      20.112517493     12.647016825     11.652092352
O       20.605813146     12.394528709     14.835083975
O       19.913994290     12.095845987     10.149189570
O       20.596142116     13.446398433      7.979203180
O       19.707180704     15.527149245     15.866613989
Si      21.156933407     12.450429573      9.133259123
O       21.364688667     11.795729700     12.342378300
O       21.124110601     14.784578688     13.910232532
Si      21.234341879     15.231730577     12.356560835
Si      21.019413308     15.490355611     16.875342741
O       14.628196552     16.340387718     15.166102621
O       12.992602001     17.158390188     13.275556428
Si      14.474192009     17.336568403     13.901180357
Si      12.068834908     20.661721983      7.871305133
O       13.956021784     16.949894708     10.465304367
O       15.232490154     19.406627184     11.576871558
Si      13.123724715     17.510411103      9.089788836
O       13.886508111     18.984835458      9.287633968
Si      14.952109847     18.329745555     10.386266901
O       11.504834112     20.528391769      9.391557699
O       11.487233537     17.620859422      9.228190442
Si      11.580699229     20.480258085     11.010511654
O       14.922890729     18.941195171     14.225680903
O       13.724971914     16.790923166      7.737574666
O       15.751083736     17.190259716     12.805615569
O       11.270292171     18.887174749     11.415497865
Si      15.975569487     18.860645158     12.951236368
O       13.647744275     20.916748169      7.507241913
O       11.736243817     19.251331850      7.117232620
O       21.132911499     18.595650798      7.962812495
O       20.067297846     16.213876550      8.275224971
Si      18.759185909     19.881323121     12.244192938
O       20.898019852     21.498042301      7.416151524
O       17.483006818     19.401825248     13.187981234
Si      20.637397373     17.907634329     13.452741546
O       19.555832918     17.840098413     14.684465258
O       16.418416531     17.979636023      9.753756578
O       17.247328487     16.722641956     15.315447575
Si      19.820441644     17.723960049      7.635130620
O       20.233043683     19.327099163     12.741723303
O       20.613437548     16.741698993     12.275253517
Si      18.796326023     16.893009774     15.755517106
Si      17.626762207     19.051147355      9.473727064
O       18.461142736     18.444992457      8.207674685
O       16.953576936     20.543653981      9.292747659
O       18.594565994     19.183347910     10.777667411
O       12.974288371     21.371918454     11.330622641
O       11.041691379     10.881440612     11.478351216
O       16.197098207     10.959772134     11.643033759
O       15.824825214     14.178113903     19.611793391
O       15.679693446     15.742913685     17.418750267
Si      16.651864770     15.124768054     18.601719828
O       17.992305323     14.624759360     17.738838197
O       20.414088298     15.594321808     18.423200220
O       18.747054388     17.340931391     17.345389250
Si      18.814787373     15.984101574     18.315460263
O       17.627477093     16.208486976     19.463687804
H       15.551092064      2.276490968     17.544185614
O        1.418358496      0.593414115     19.374432720
H        0.498761601      0.287255487     19.405831283
H        7.685411110      8.940582233      8.125230741
O        7.774782409      2.227250475     15.299502162
H        6.969030887      2.172390497     15.838196775
H       19.969270944     19.013907079      2.810124580
O       12.835288060      5.370562710      0.075404436
H       12.153482928      5.241299463     -0.601710350
H       17.915378644     10.237056777      0.866993069
O        6.638470159      9.718980312     17.177484421
H        5.668361893      9.694312076     17.213722435
H       15.023388997     13.750223466     19.268574032
O       -0.365414182     20.459957666      9.616172035
H       -0.226039589     19.713105675     10.222778932
H        9.602524490      0.729187977     17.100048112
O        5.590127806      4.783280022      1.006531421
H        6.071424474      5.523911345      0.597848145
H        8.242144092      7.634472818      0.752428257
O       15.080864989     15.086432818      3.129442017
H       15.730998419     14.744716402      3.765861535
H        3.260677529      2.544080189     19.014892928
O       16.269253749      0.583607518     12.413387366
H       15.546061404      1.202961281     12.174373755
H       13.008309662     16.968450691     12.315196677
O       10.298825951     10.458645051      5.013370284
H        9.875140573     10.170563564      5.840252307
     &END COORD
          
     &KIND O
       BASIS_SET DZVP-MOLOPT-SR-GTH
       POTENTIAL GTH-PBE-q6 
     &END KIND
     &KIND Si
       BASIS_SET DZVP-MOLOPT-SR-GTH
       POTENTIAL GTH-PBE-q4
     &END KIND
     &KIND Al
       BASIS_SET DZVP-MOLOPT-SR-GTH
       POTENTIAL GTH-PBE-q3
     &END KIND
     &KIND Zr
       BASIS_SET TZV2P-MOLOPT-SR-GTH
       POTENTIAL GTH-PBE-q12
     &END KIND
     &KIND H
       BASIS_SET DZVP-MOLOPT-SR-GTH
       POTENTIAL GTH-PBE-q1   
     &END KIND
     &KIND C
       BASIS_SET DZVP-MOLOPT-SR-GTH
       POTENTIAL GTH-PBE-q4
     &END KIND 
   
     &PRINT
       &TOPOLOGY_INFO
         XYZ_INFO
       &END TOPOLOGY_INFO
      
       &KINDS
         BASIS_SET
         POTENTIAL
       &END KINDS
     &END PRINT
         
   &END SUBSYS
 &END FORCE_EVAL

