@set PROJECT PBE0
@set RUN ENERGY_FORCE

&FORCE_EVAL
  METHOD Quickstep
  &DFT
     CHARGE 0
     BASIS_SET_FILE_NAME BASIS_ADMM
     BASIS_SET_FILE_NAME BASIS_ADMM_MOLOPT
     BASIS_SET_FILE_NAME BASIS_MOLOPT
     BASIS_SET_FILE_NAME BASIS_MOLOPT_UCL
     POTENTIAL_FILE_NAME GTH_POTENTIALS
     WFN_RESTART_FILE_NAME BLYP-RESTART.wfn
     &MGRID
       CUTOFF 450
       REL_CUTOFF 30
       NGRIDS 4
     &END MGRID
     &QS
       EPS_DEFAULT 1.0E-10
       EPS_PGF_ORB 1.0E-40
       EPS_FILTER_MATRIX 0
       METHOD  GPW
       EXTRAPOLATION ASPC
     &END QS
     ! use ADMM
     &AUXILIARY_DENSITY_MATRIX_METHOD
      ! recommended, i.e. use a smaller basis for HFX
      ! each kind will need an AUX_FIT_BASIS_SET.
       METHOD BASIS_PROJECTION
      ! recommended, this method is stable and allows for MD.
      ! can be expensive for large systems
       ADMM_PURIFICATION_METHOD MO_DIAG
     &END
     &SCF
       MAX_SCF          500           ! Max n of iterations
       EPS_SCF          1.0E-05       ! SCF converergence
       SCF_GUESS        RESTART
       &OT
         MINIMIZER DIIS
         PRECONDITIONER FULL_SINGLE_INVERSE
       &END OT
     &END SCF
     ! specify the exchange and correlation treatment
     &XC
       ! use a PBE0 functional
       &XC_FUNCTIONAL
         &PBE
           ! 75% GGA exchange
           SCALE_X 0.75
           ! 100% GGA correlation
           SCALE_C 1.0
         &END PBE
       &END XC_FUNCTIONAL
       &HF
         ! 25 % HFX exchange
         FRACTION 0.25
         ! Important to improve scaling from O(N^4) to O(N)
         &SCREENING
           ! important parameter to get stable HFX calcs (contributions to hfx smaller than EPS_SCHWARZ are not considered)
           EPS_SCHWARZ 1.0E-6
           ! needs a good (GGA) initial guess
           ! screening on the product between maximum of density matrix elements and ERI
           SCREEN_ON_INITIAL_P TRUE
         &END SCREENING
         &INTERACTION_POTENTIAL
           ! for condensed phase systems
           POTENTIAL_TYPE TRUNCATED
           ! should be less than halve the cell
           CUTOFF_RADIUS 5.0
           ! data file needed with the truncated operator
           T_C_G_DATA t_c_g.dat
         &END INTERACTION_POTENTIAL
         &MEMORY
           ! In MB per MPI rank.. use as much as need to get in-core operation
           MAX_MEMORY 5000
           EPS_STORAGE_SCALING 0.1
         &END MEMORY
       &END HF
       ! adding Grimme's D3 correction (by default without C9 terms)
       &VDW_POTENTIAL
         POTENTIAL_TYPE PAIR_POTENTIAL
         &PAIR_POTENTIAL
           PARAMETER_FILE_NAME dftd3.dat
           TYPE DFTD3(BJ)
           REFERENCE_FUNCTIONAL PBE0
         &END PAIR_POTENTIAL
       &END VDW_POTENTIAL
     &END XC
     &POISSON
       POISSON_SOLVER PERIODIC
       PERIODIC XYZ
     &END POISSON
  &END DFT
  &SUBSYS
    &CELL
      A   21.5      0.0000000000000000    0.0000000000000000
      B    0.0000000000000000   21.5      0.000000000000000
      C    0.0000000000000000    0.0000000000000000   40.0
      PERIODIC  XYZ
    &END CELL
    @include coord.sys
    &KIND O
      BASIS_SET DZVP-MOLOPT-SR-GTH
      BASIS_SET AUX_FIT cFIT3
      POTENTIAL GTH-PBE-q6
    &END KIND
    &KIND Si
      BASIS_SET DZVP-MOLOPT-SR-GTH
      BASIS_SET AUX_FIT cFIT3
      POTENTIAL GTH-PBE-q4
    &END KIND
    &KIND Al
      BASIS_SET DZVP-MOLOPT-SR-GTH
      BASIS_SET AUX_FIT cFIT9
      POTENTIAL GTH-PBE-q3
    &END KIND
    &KIND Zr
      BASIS_SET TZV2P-MOLOPT-SR-GTH
      BASIS_SET AUX_FIT cFIT11
      POTENTIAL GTH-PBE-q12
    &END KIND
    &KIND H
      MASS 2.0141
      BASIS_SET DZVP-MOLOPT-SR-GTH
      BASIS_SET AUX_FIT cFIT3
      POTENTIAL GTH-PBE-q1
    &END KIND
    &KIND C
      BASIS_SET DZVP-MOLOPT-SR-GTH
      BASIS_SET AUX_FIT cFIT3
      POTENTIAL GTH-PBE-q4
    &END KIND
  &END SUBSYS
  &PRINT                    ! Add a PRINT section to output forces
    &FORCES LOW
      FILENAME frc 
    &END FORCES
  &END PRINT
&END FORCE_EVAL

&GLOBAL
  PROJECT ${PROJECT}
  RUN_TYPE ${RUN}
  PRINT_LEVEL MEDIUM 
  EXTENDED_FFT_LENGTHS
&END GLOBAL
