@set PROJECT TEST_GGA 
@set RUN GEO_OPT

&MOTION
  &GEO_OPT
    OPTIMIZER BFGS
    TYPE MINIMIZATION
    MAX_ITER 1
  &END GEO_OPT
  &PRINT
    &FORCES LOW
      FORMAT XMOL
    &END FORCES
  &END PRINT
&END MOTION

 
&FORCE_EVAL
  METHOD Quickstep
  &DFT
     CHARGE 0
     BASIS_SET_FILE_NAME BASIS_MOLOPT_UCL
     BASIS_SET_FILE_NAME BASIS_MOLOPT
     POTENTIAL_FILE_NAME GTH_POTENTIALS
     &MGRID
       CUTOFF 450
       REL_CUTOFF 30
       NGRIDS 4
     &END MGRID

     &QS
       METHOD  GPW
     &END QS

     &SCF
      !MAX_SCF          1             ! Max n of iterations
       EPS_SCF          0.1E-04       ! SCF converergence
       SCF_GUESS        ATOMIC
       &OT
         MINIMIZER DIIS
         PRECONDITIONER FULL_SINGLE_INVERSE
       &END OT
     &END SCF

     &XC
       &XC_FUNCTIONAL BLYP
       &END XC_FUNCTIONAL
      ! &XC_GRID
       !  XC_DERIV SPLINE2
       !  XC_SMOOTH_RHO NONE
      ! &END XC_GRID

       &VDW_POTENTIAL
         DISPERSION_FUNCTIONAL PAIR_POTENTIAL
         &PAIR_POTENTIAL
           TYPE DFTD3(BJ)
           ! PARAMETER_FILE_NAME dftd3.dat
           REFERENCE_FUNCTIONAL BLYP
         &END PAIR_POTENTIAL
       &END VDW_POTENTIAL
     &END XC

     &POISSON
       POISSON_SOLVER PERIODIC
       PERIODIC XYZ
     &END POISSON
     
     !&PRINT
     !  &RESTART
     !  &END 
     !&END PRINT
  &END DFT

  &SUBSYS
    &CELL
      A   21.5      0.0000000000000000    0.0000000000000000
      B    0.0000000000000000   21.5      0.000000000000000
      C    0.0000000000000000    0.0000000000000000   40.0
      PERIODIC  XYZ
      !MULTIPLE_UNIT_CELL  1 1 1
    &END CELL
    @include coord.sys
    &KIND O
      BASIS_SET DZVP-MOLOPT-SR-GTH
      POTENTIAL GTH-PBE-q6
    &END KIND
    &KIND Si
      BASIS_SET DZVP-MOLOPT-SR-GTH
      POTENTIAL GTH-PBE-q4
    &END KIND
    &KIND Al
      BASIS_SET DZVP-MOLOPT-SR-GTH
      POTENTIAL GTH-PBE-q3
    &END KIND
    &KIND Zr
      BASIS_SET TZV2P-MOLOPT-SR-GTH
      POTENTIAL GTH-PBE-q12
    &END KIND
    &KIND H
      MASS 2.0141
      BASIS_SET DZVP-MOLOPT-SR-GTH
      POTENTIAL GTH-PBE-q1
    &END KIND
    &KIND C
      BASIS_SET DZVP-MOLOPT-SR-GTH
      POTENTIAL GTH-PBE-q4
    &END KIND
  &END SUBSYS

&END FORCE_EVAL

&GLOBAL
  PROJECT ${PROJECT}
  RUN_TYPE ${RUN}
  PRINT_LEVEL HIGH
  EXTENDED_FFT_LENGTHS
&END GLOBAL
